c turning on binary mode checking
c parsing input formula with 259840 variables and 1039924 clauses
c finished parsing, read 2665023 bytes from proof file
c detected empty clause; start verification via backward checking
c 816 of 1039924 clauses in core                            
c 206 of 108362 lemmas in core using 2241 resolution steps
c 0 RAT lemmas in core; 30 redundant literals in core lemmas
s VERIFIED
c verification time: 1.181 seconds
